AME : levi30_22
COMMENT : 30: 40x18 -city problem (levikoppenhol)
TYPE : TSP
DIMENSION : 30
EDGE_WEIGHT_TYPE : EUC_2D
NODE_COORD_SECTION
1 5 25
2 6 22
3 17 22
4 8 24
5 11 9
6 7 22
7 12 4
8 10 40
9 6 16
10 4 39
11 8 7
12 7 8
13 3 34
14 16 5
15 4 0
16 15 34
17 7 22
18 6 39
19 5 38
20 14 4
21 17 25
22 0 31
23 8 21
24 12 18
25 2 34
26 1 18
27 10 2
28 8 29
29 10 39
30 14 4
EOF